NAME : GeneratedInstance
TYPE : TSP
DIMENSION : 35
EDGE_WEIGHT_TYPE : EUC_2D
NODE_COORD_SECTION
1 62.436193 93.462991
2 97.146972 14.284880
3 18.298775 78.281608
4 6.494180 54.272933
5 86.741189 18.278255
6 88.482304 12.326020
7 25.789146 77.705780
8 8.707852 95.418674
9 50.043046 33.774679
10 24.125270 78.872778
11 7.056298 44.536403
12 32.634092 53.488559
13 54.459605 67.582765
14 29.652319 74.556925
15 80.607588 31.541945
16 78.193820 43.512177
17 38.594685 45.295599
18 77.025423 79.182619
19 27.001997 81.647990
20 21.770008 70.339537
21 67.809120 83.542324
22 36.438218 5.283933
23 43.602353 24.806415
24 81.466344 74.457606
25 33.205691 10.763207
26 86.100620 2.509713
27 94.970005 41.579168
28 21.272759 73.724821
29 68.730676 67.956798
30 73.259012 38.015716
31 19.734812 17.908774
32 1.676148 6.317891
33 17.953354 31.850621
34 68.173433 40.550663
35 87.562515 15.972031
EOF
